study/exp-portion-fine-grain-4v100/run-logs-backup-12-06/unsupervised_samgraph_cache_graphsage_kKHop2_papers100M-undir_coll_cache_asymm_link_2_cache_rate_012_batch_size_2000_concurrent_impl_MPS.log
config:eval_tsp="2022-12-05 16:21:04"
config:arch=arch5
config:num_train_worker=3
config:num_sample_worker=1
config:sample_type=khop2
config:root_path=/nvme/graph-learning-copy/samgraph/
config:dataset=papers100M-undir
config:pipeline=False
config:cache_policy=coll_cache_asymm_link
config:cache_percentage=0.12
config:num_epoch=4
config:batch_size=2000
config:num_hidden=256
config:max_sampling_jobs=1
config:max_copying_jobs=1
config:barriered_epoch=1
config:presample_epoch=2
config:omp_thread_num=13
config:unsupervised=True
config:amp=True
config:rolling=0
config:fanout=[25, 10]
config:lr=0.003
config:dropout=0.5
config:single_gpu=False
config:max_num_step=1000
config:validate_configs=False
config:report_acc=0
config:dataset_path=/nvme/graph-learning-copy/samgraph/papers100M-undir
config:torch_thread_num=13
config:train_workers=['cuda:0', 'cuda:1', 'cuda:2']
config:sample_workers=['cuda:3']
config:num_fanout=2
config:num_layer=2
config:_run_mode=RunMode.FGNN
config:_log_level=warn
config:_profile_level=3
config:_empty_feat=0
config:_arch=5
config:_sample_type=5
config:_cache_policy=13
test_result:init:input_scale_factor=1.1
0 :  {link #0 : 1}, {link #1 : 2},
1 :  {link #0 : 2}, {link #1 : 0},
2 :  {link #0 : 0}, {link #1 : 1},
0 :  {link #0 : 1}, {link #1 : 2},
1 :  {link #0 : 2}, {link #1 : 0},
2 :  {link #0 : 0}, {link #1 : 1},
0 :  {link #0 : 1}, {link #1 : 2},
1 :  {link #0 : 2}, {link #1 : 0},
2 :  {link #0 : 0}, {link #1 : 1},
Set parameter WLSAccessID
Set parameter WLSSecret
Set parameter LicenseID
Set parameter TimeLimit to value 200
Set parameter MIPGap to value 0.05
Set parameter GomoryPasses to value 0
Set parameter Aggregate to value 0
Set parameter LogFile to value "cppsolver.log"
Set parameter Threads to value 26
Academic license - for non-commercial use only - registered to xiaoniu.sxn@sjtu.edu.cn
Gurobi Optimizer version 9.5.1 build v9.5.1rc2 (linux64)
Thread count: 40 physical cores, 80 logical processors, using up to 26 threads
Academic license - for non-commercial use only - registered to xiaoniu.sxn@sjtu.edu.cn
Optimize a model with 21519 rows, 10244 columns and 64527 nonzeros
Model fingerprint: 0x7e8f572a
Variable types: 4 continuous, 10240 integer (10240 binary)
Coefficient statistics:
  Matrix range     [8e-05, 9e+02]
  Objective range  [1e+00, 1e+00]
  Bounds range     [1e+00, 1e+00]
  RHS range        [1e+00, 1e+03]
Found heuristic solution: objective 2.000000e+09
Presolve removed 12290 rows and 0 columns
Presolve time: 0.09s
Presolved: 9229 rows, 10244 columns, 37901 nonzeros
Found heuristic solution: objective 47068.165275
Variable types: 4 continuous, 10240 integer (10240 binary)

Root relaxation: objective 9.551986e+03, 8375 iterations, 0.19 seconds (0.16 work units)

    Nodes    |    Current Node    |     Objective Bounds      |     Work
 Expl Unexpl |  Obj  Depth IntInf | Incumbent    BestBd   Gap | It/Node Time

     0     0 9551.98572    0   16 47068.1653 9551.98572  79.7%     -    0s
H    0     0                    41395.106452 9551.98572  76.9%     -    0s
H    0     0                    9569.9214203 9551.98572  0.19%     -    0s
H    0     0                    9569.5642078 9551.98572  0.18%     -    0s

Cutting planes:
  Cover: 1
  MIR: 2
  StrongCG: 1
  RLT: 3

Explored 1 nodes (10205 simplex iterations) in 0.47 seconds (0.40 work units)
Thread count was 26 (of 80 available processors)

Solution count 5: 9569.56 9569.92 41395.1 ... 2e+09

Optimal solution found (tolerance 5.00e-02)
Best objective 9.569564207828e+03, best bound 9.551985724813e+03, gap 0.1837%
coll_cache:optimal_local_rate=0.300677,0.266263,0.299877,
coll_cache:optimal_remote_rate=0.56614,0.600554,0.56694,
coll_cache:optimal_cpu_rate=0.133183,0.133183,0.133183,
z=9569.56
test_result:init:feat_nbytes=56862697472
test_result:init:cache_nbytes=6829169152
test_result:init:feat_nbytes=56862697472
test_result:init:cache_nbytes=6829100544
test_result:init:feat_nbytes=56862697472
test_result:init:cache_nbytes=6828867584
[Train  Worker 1/3] Started with PID 122269(Tesla V100-SXM2-16GB)
[Train  Worker 1] run train for 4 epochs with 1002 steps
[Train  Worker 2/3] Started with PID 122272(Tesla V100-SXM2-16GB)
[Train  Worker 2] run train for 4 epochs with 1002 steps
[CUDA] cuda0: usage: 12.43 GB
[SAM] cuda0 data alloc        : 0.00 Bytes
[SAM] cuda0 workspace         : 1.30 GB
[SAM] cuda0 workspace reserve : 657.11 MB
[SAM] cuda0 total             : 1.30 GB
[Train  Worker 0/3] Started with PID 122267(Tesla V100-SXM2-16GB)
[Train  Worker 0] run train for 4 epochs with 1002 steps
Epoch 00000 | Epoch Time 7.2439 | Total Train Time(Profiler) 3.6044 | Copy Time 3.6100
[CUDA] cuda0: usage: 12.43 GB
[SAM] cuda0 data alloc        : 0.00 Bytes
[SAM] cuda0 workspace         : 1.30 GB
[SAM] cuda0 workspace reserve : 658.17 MB
[SAM] cuda0 total             : 1.30 GB
Epoch 00001 | Epoch Time 6.1241 | Total Train Time(Profiler) 2.5186 | Copy Time 3.5774
[CUDA] cuda0: usage: 12.43 GB
[SAM] cuda0 data alloc        : 0.00 Bytes
[SAM] cuda0 workspace         : 1.30 GB
[SAM] cuda0 workspace reserve : 657.56 MB
[SAM] cuda0 total             : 1.30 GB
Epoch 00002 | Epoch Time 6.0926 | Total Train Time(Profiler) 2.4877 | Copy Time 3.5777
[CUDA] cuda0: usage: 12.43 GB
[SAM] cuda0 data alloc        : 0.00 Bytes
[SAM] cuda0 workspace         : 1.30 GB
[SAM] cuda0 workspace reserve : 657.11 MB
[SAM] cuda0 total             : 1.30 GB
Epoch 00003 | Epoch Time 6.1241 | Total Train Time(Profiler) 2.5062 | Copy Time 3.5901
[Train  Worker 2] Avg Epoch Time 6.1134 | Train Total Time(Profiler) 2.4711 | Copy Time 3.6140
[Train  Worker 1] Avg Epoch Time 6.1135 | Train Total Time(Profiler) 2.4944 | Copy Time 3.5894
[Train  Worker 0] Avg Epoch Time 6.1136 | Train Total Time(Profiler) 2.5042 | Copy Time 3.5817
    [Step(average) Profiler Level 1 E3 S1001]
        L1  sample           0.004561 | send           0.001196
        L1  recv             0.000000 | copy           0.000000 | convert time 0.000000 | train  0.000000
        L1  feature nbytes 0.00 Bytes | label nbytes 0.00 Bytes
        L1  id nbytes      0.00 Bytes | graph nbytes 0.00 Bytes
        L1  miss nbytes    0.00 Bytes | remote nbytes 0.00 Bytes
        L1  num nodes         1156312 | num samples     1337751
    [Step(average) Profiler Level 2 E3 S1001]
        L2  shuffle     0.000075 | core sample  0.001360 | id remap        0.002938
        L2  graph copy  0.000000 | id copy      0.000000 | cache feat copy 0.000000
        L2  last layer sample time 0.000299 | size 57561.091151
    [Step(average) Profiler Level 3 E3 S1001]
        L3  khop sample coo  0.001060 | khop sort coo      0.000000 | khop count edge     0.000036 | khop compact edge 0.000212
        L3  walk sample coo  0.000000 | walk topk total    0.000000 | walk topk step1     0.000000 | walk topk step2   0.000000
        L3  walk topk step3  0.000000 | walk topk step4    0.000000 | walk topk step5     0.000000
        L3  walk topk step6  0.000000 | walk topk step7    0.000000
        L3  remap unique     0.000177 | remap populate     0.002496 | remap mapnode       0.000000 | remap mapedge     0.000455
        L3  cache get_index  0.000000 | cache copy_index   0.000000 | cache extract_miss  0.000000
        L3  cache copy_miss  0.000000 | cache combine_miss 0.000000 | cache combine cache 0.000000 | cache combine remote 0.000000
        L3  label extract  0.000000
    [Init Profiler Level 1]
        L1  init     6.0896 | sampler init    48.0302 | trainer init 0.0000
    [Init Profiler Level 2]
        L2  load ds         9.1984 | init queue          23.1239
        L2  presample      20.0132 | build interal ds     1.7815
        L2  build cache     0.0000
    [Init Profiler Level 3]
        L3  load dataset: mmap     6.0868 | copy         3.1116
        L3  dist queue: alloc      0.0007 | pin         23.1233 | push     0.0000
        L3  presample: init        0.3031
        L3  presample: sample      9.1717 | copy         0.7287
        L3  presample: count       9.1059 | sort         0.3197
        L3  presample: reset       0.0024 | get rank     0.0341
        L3  internal: cuda ctx     1.5344 | cuda stream     0.2404
[Sample Worker 0/1] Started with PID 122265(Tesla V100-SXM2-16GB)
[Sample Worker 0] run sample for 4 epochs with 1002 steps
[Sample Worker 0] Avg Sample Total Time 5.7798 | Sampler Total Time(Profiler) 5.7689
test_result:sample_time=4.5705
test_result:get_cache_miss_index_time=0.0000
test_result:enqueue_samples_time=1.1984
test_result:epoch_time:sample_total=5.7798
[CUDA] cuda0: usage: 12.43 GB
[SAM] cuda0 data alloc        : 0.00 Bytes
[SAM] cuda0 workspace         : 1.30 GB
[SAM] cuda0 workspace reserve : 657.11 MB
[SAM] cuda0 total             : 1.30 GB
    [Step(average) Profiler Level 1 E3 S1001]
        L1  sample           0.000000 | send           0.000000
        L1  recv             0.001341 | copy           0.010764 | convert time 0.000437 | train  0.007018
        L1  feature nbytes  564.61 MB | label nbytes   15.62 KB
        L1  id nbytes      0.00 Bytes | graph nbytes 0.00 Bytes
        L1  miss nbytes      80.45 MB | remote nbytes  322.77 MB
        L1  num nodes               0 | num samples           0
    [Step(average) Profiler Level 2 E3 S1001]
        L2  shuffle     0.000000 | core sample  0.000000 | id remap        0.000000
        L2  graph copy  0.000003 | id copy      0.000000 | cache feat copy 0.009420
        L2  last layer sample time 0.000000 | size 0.000000
    [Step(average) Profiler Level 3 E3 S1001]
        L3  khop sample coo  0.000000 | khop sort coo      0.000000 | khop count edge     0.000000 | khop compact edge 0.000000
        L3  walk sample coo  0.000000 | walk topk total    0.000000 | walk topk step1     0.000000 | walk topk step2   0.000000
        L3  walk topk step3  0.000000 | walk topk step4    0.000000 | walk topk step5     0.000000
        L3  walk topk step6  0.000000 | walk topk step7    0.000000
        L3  remap unique     0.000000 | remap populate     0.000000 | remap mapnode       0.000000 | remap mapedge     0.000000
        L3  cache get_index  0.000733 | cache copy_index   0.000000 | cache extract_miss  0.000000
        L3  cache copy_miss  0.000000 | cache combine_miss 0.008662 | cache combine cache 0.000762 | cache combine remote 0.004283
        L3  label extract  0.000015
    [Step(max) Profiler Level 1 E3 S1001]
        L1  sample           0.000000 | send           0.000000
        L1  recv             0.000000 | copy           0.000000 | convert time 0.000000 | train  0.000000
        L1  feature nbytes 0.00 Bytes | label nbytes 0.00 Bytes
        L1  id nbytes      0.00 Bytes | graph nbytes   10.38 MB
        L1  miss nbytes    0.00 Bytes | remote nbytes 0.00 Bytes
        L1  num nodes               0 | num samples           0
    [Step(max) Profiler Level 2 E3 S1001]
        L2  shuffle     0.000000 | core sample  0.000000 | id remap        0.000000
        L2  graph copy  0.000000 | id copy      0.000000 | cache feat copy 0.000000
        L2  last layer sample time 0.000000 | size 0.000000
    [Step(max) Profiler Level 3 E3 S1001]
        L3  khop sample coo  0.000000 | khop sort coo      0.000000 | khop count edge     0.000000 | khop compact edge 0.000000
        L3  walk sample coo  0.000000 | walk topk total    0.000000 | walk topk step1     0.000000 | walk topk step2   0.000000
        L3  walk topk step3  0.000000 | walk topk step4    0.000000 | walk topk step5     0.000000
        L3  walk topk step6  0.000000 | walk topk step7    0.000000
        L3  remap unique     0.000000 | remap populate     0.000000 | remap mapnode       0.000000 | remap mapedge     0.000000
        L3  cache get_index  0.000000 | cache copy_index   0.000000 | cache extract_miss  0.000000
        L3  cache copy_miss  0.000000 | cache combine_miss 0.000000 | cache combine cache 0.000000 | cache combine remote 0.000000
        L3  label extract  0.000000
    [Step(min) Profiler Level 1 E3 S1001]
        L1  sample           0.000000 | send           0.000000
        L1  recv             0.000000 | copy           0.000000 | convert time 0.000000 | train  0.000000
        L1  feature nbytes 0.00 Bytes | label nbytes 0.00 Bytes
        L1  id nbytes      0.00 Bytes | graph nbytes   10.09 MB
        L1  miss nbytes    0.00 Bytes | remote nbytes 0.00 Bytes
        L1  num nodes               0 | num samples           0
    [Step(min) Profiler Level 2 E3 S1001]
        L2  shuffle     0.000000 | core sample  0.000000 | id remap        0.000000
        L2  graph copy  0.000000 | id copy      0.000000 | cache feat copy 0.000000
        L2  last layer sample time 0.000000 | size 0.000000
    [Step(min) Profiler Level 3 E3 S1001]
        L3  khop sample coo  0.000000 | khop sort coo      0.000000 | khop count edge     0.000000 | khop compact edge 0.000000
        L3  walk sample coo  0.000000 | walk topk total    0.000000 | walk topk step1     0.000000 | walk topk step2   0.000000
        L3  walk topk step3  0.000000 | walk topk step4    0.000000 | walk topk step5     0.000000
        L3  walk topk step6  0.000000 | walk topk step7    0.000000
        L3  remap unique     0.000000 | remap populate     0.000000 | remap mapnode       0.000000 | remap mapedge     0.000000
        L3  cache get_index  0.000000 | cache copy_index   0.000000 | cache extract_miss  0.000000
        L3  cache copy_miss  0.000000 | cache combine_miss 0.000000 | cache combine cache 0.000000 | cache combine remote 0.000000
        L3  label extract  0.000000
    [Init Profiler Level 1]
        L1  init     6.0896 | sampler init     0.0000 | trainer init 84.1041
    [Init Profiler Level 2]
        L2  load ds         6.0868 | init queue          23.0869
        L2  presample       0.0000 | build interal ds     1.5085
        L2  build cache    59.5035
    [Init Profiler Level 3]
        L3  load dataset: mmap     6.0868 | copy         0.0000
        L3  dist queue: alloc      0.0007 | pin         23.0862 | push     0.0000
        L3  presample: init        0.0000
        L3  presample: sample      0.0000 | copy         0.0000
        L3  presample: count       0.0000 | sort         0.0000
        L3  presample: reset       0.0000 | get rank     0.0000
        L3  internal: cuda ctx     1.5084 | cuda stream     0.0001
|===========================================================================|
|                  PyTorch CUDA memory summary, device ID 0                 |
|---------------------------------------------------------------------------|
|            CUDA OOMs: 0            |        cudaMalloc retries: 0         |
|===========================================================================|
|        Metric         | Cur Usage  | Peak Usage | Tot Alloc  | Tot Freed  |
|---------------------------------------------------------------------------|
| Allocated memory      |   18301 KB |  391056 KB |    1572 GB |    1572 GB |
|       from large pool |   13981 KB |  389852 KB |    1560 GB |    1560 GB |
|       from small pool |    4320 KB |    6145 KB |      11 GB |      11 GB |
|---------------------------------------------------------------------------|
| Active memory         |   18302 KB |  391056 KB |    1572 GB |    1572 GB |
|       from large pool |   13981 KB |  389852 KB |    1560 GB |    1560 GB |
|       from small pool |    4320 KB |    6145 KB |      11 GB |      11 GB |
|---------------------------------------------------------------------------|
| GPU reserved memory   |  471040 KB |  471040 KB |  471040 KB |       0 B  |
|       from large pool |  462848 KB |  462848 KB |  462848 KB |       0 B  |
|       from small pool |    8192 KB |    8192 KB |    8192 KB |       0 B  |
|---------------------------------------------------------------------------|
| Non-releasable memory |   63618 KB |  352859 KB |    1707 GB |    1707 GB |
|       from large pool |   61794 KB |  350564 KB |    1694 GB |    1694 GB |
|       from small pool |    1823 KB |    3427 KB |      13 GB |      13 GB |
|---------------------------------------------------------------------------|
| Allocations           |      39    |      56    |  183068    |  183029    |
|       from large pool |       3    |      14    |   65464    |   65461    |
|       from small pool |      36    |      45    |  117604    |  117568    |
|---------------------------------------------------------------------------|
| Active allocs         |      40    |      56    |  183068    |  183028    |
|       from large pool |       3    |      14    |   65464    |   65461    |
|       from small pool |      37    |      45    |  117604    |  117567    |
|---------------------------------------------------------------------------|
| GPU reserved segments |      11    |      11    |      11    |       0    |
|       from large pool |       7    |       7    |       7    |       0    |
|       from small pool |       4    |       4    |       4    |       0    |
|---------------------------------------------------------------------------|
| Non-releasable allocs |      14    |      24    |   72172    |   72158    |
|       from large pool |       3    |      10    |   36396    |   36393    |
|       from small pool |      11    |      17    |   35776    |   35765    |
|---------------------------------------------------------------------------|
| Oversize allocations  |       0    |       0    |       0    |       0    |
|---------------------------------------------------------------------------|
| Oversize GPU segments |       0    |       0    |       0    |       0    |
|===========================================================================|

test_result:epoch_time:copy_time=3.5817
test_result:convert_time=0.1449
test_result:train_time=2.3593
test_result:epoch_time:train_total=2.5042
test_result:cache_percentage=0.1200
test_result:cache_hit_rate=1.0000
test_result:run_time=48.7210
